c This Formular is generated by mcnf
c
c    horn? no 
c    forced? no 
c    mixed sat? no 
c    clause length = 3 
c
p cnf 20  91 
-12 -9 17 0
17 5 0
-3 11 12 0
-6 -17 -8 0
-10 -11 8 0
6 10 7 0
-7 1 0
12 -11 -7 0
9 -5 -1 0
3 11 0